100 10
88 106
545 658
570 643
406 388
303 117
815 497
404 641
237 362
740 451
277 734
557 495
342 340
787 450
563 433
960 420
396 596
717 189
504 644
323 686
317 657
843 268
521 452
902 471
467 736
271 723
610 429
818 315
738 239
490 154
869 470
425 634
674 297
607 540
114 264
513 501
367 554
542 791
797 475
608 506
801 342
772 633
247 527
829 205
757 103
582 512
941 549
201 721
810 460
824 310
617 663
791 705
469 666
271 213
250 549
514 134
719 565
325 315
593 446
839 245
678 422
226 61
207 595
645 237
530 394
236 750
608 827
637 436
550 708
271 147
796 289
239 106
759 422
546 410
729 383
458 580
401 622
714 438
811 600
552 659
264 354
582 539
804 493
675 284
860 215
464 183
790 164
337 446
856 274
552 774
698 391
549 528
562 642
830 312
485 395
529 805
482 139
384 649
569 415
893 357
498 737
